(set-info :source |printed by MathSAT|)
(declare-fun |id::x__param__@2| () (_ BitVec 32))
(declare-fun |id::x@2| () (_ BitVec 32))
(declare-fun |id::x__param__@3| () (_ BitVec 32))
(declare-fun |id::__retval__@2| () (_ BitVec 32))
(declare-fun |id::x@3| () (_ BitVec 32))
(declare-fun |id::x__param__@4| () (_ BitVec 32))
(declare-fun |id::x@4| () (_ BitVec 32))
(declare-fun |id::x__param__@5| () (_ BitVec 32))
(declare-fun |id::x@5| () (_ BitVec 32))
(declare-fun |id::x__param__@6| () (_ BitVec 32))
(declare-fun |id::x@6| () (_ BitVec 32))
(declare-fun |id::x__param__@7| () (_ BitVec 32))
(declare-fun |id::x@7| () (_ BitVec 32))
(declare-fun |id::x__param__@8| () (_ BitVec 32))
(declare-fun |id::x@8| () (_ BitVec 32))
(declare-fun |id::x__param__@9| () (_ BitVec 32))
(declare-fun |id::x@9| () (_ BitVec 32))
(declare-fun |id::x__param__@10| () (_ BitVec 32))
(declare-fun |id::x@10| () (_ BitVec 32))
(declare-fun |id::x__param__@11| () (_ BitVec 32))
(declare-fun |id::x@11| () (_ BitVec 32))
(declare-fun |id::x__param__@12| () (_ BitVec 32))
(declare-fun |id::x@12| () (_ BitVec 32))
(declare-fun |id::x__param__@13| () (_ BitVec 32))
(declare-fun |id::x@13| () (_ BitVec 32))
(declare-fun |id::x__param__@14| () (_ BitVec 32))
(declare-fun |id::x@14| () (_ BitVec 32))
(declare-fun |id::x__param__@15| () (_ BitVec 32))
(declare-fun |id::x@15| () (_ BitVec 32))
(declare-fun |id::x__param__@16| () (_ BitVec 32))
(declare-fun |id::x@16| () (_ BitVec 32))
(declare-fun |id::x__param__@17| () (_ BitVec 32))
(declare-fun |id::x@17| () (_ BitVec 32))
(declare-fun |id::x__param__@18| () (_ BitVec 32))
(declare-fun |id::x@18| () (_ BitVec 32))
(declare-fun |id::x__param__@19| () (_ BitVec 32))
(declare-fun |id::x@19| () (_ BitVec 32))
(declare-fun |id::x__param__@20| () (_ BitVec 32))
(declare-fun |id::x@20| () (_ BitVec 32))
(declare-fun |id::x__param__@21| () (_ BitVec 32))
(declare-fun |id::x@21| () (_ BitVec 32))
(declare-fun |id::x__param__@22| () (_ BitVec 32))
(declare-fun |id::x@22| () (_ BitVec 32))
(declare-fun |id::iVar1@23| () (_ BitVec 32))
(declare-fun |id::__retval__@3| () (_ BitVec 32))
(declare-fun |id::__retval__@4| () (_ BitVec 32))
(declare-fun |id::__retval__@5| () (_ BitVec 32))
(declare-fun |id::__retval__@6| () (_ BitVec 32))
(declare-fun |id::__retval__@7| () (_ BitVec 32))
(declare-fun |id::__retval__@8| () (_ BitVec 32))
(declare-fun |id::__retval__@9| () (_ BitVec 32))
(declare-fun |id::__retval__@10| () (_ BitVec 32))
(declare-fun |id::__retval__@11| () (_ BitVec 32))
(declare-fun |id::__retval__@12| () (_ BitVec 32))
(declare-fun |id::__retval__@13| () (_ BitVec 32))
(declare-fun |id::__retval__@14| () (_ BitVec 32))
(declare-fun |id::__retval__@15| () (_ BitVec 32))
(declare-fun |id::__retval__@16| () (_ BitVec 32))
(declare-fun |id::__retval__@17| () (_ BitVec 32))
(declare-fun |id::__retval__@18| () (_ BitVec 32))
(declare-fun |id::__retval__@19| () (_ BitVec 32))
(declare-fun |id::__retval__@20| () (_ BitVec 32))
(declare-fun |id::__retval__@21| () (_ BitVec 32))
(declare-fun |id::__retval__@22| () (_ BitVec 32))
(declare-fun |id::iVar1@25| () (_ BitVec 32))
(declare-fun |id::iVar1@26| () (_ BitVec 32))
(declare-fun |id::iVar1@28| () (_ BitVec 32))
(declare-fun |id::iVar1@29| () (_ BitVec 32))
(declare-fun |id::iVar1@31| () (_ BitVec 32))
(declare-fun |id::iVar1@32| () (_ BitVec 32))
(declare-fun |id::iVar1@34| () (_ BitVec 32))
(declare-fun |id::iVar1@35| () (_ BitVec 32))
(declare-fun |id::iVar1@37| () (_ BitVec 32))
(declare-fun |id::iVar1@38| () (_ BitVec 32))
(declare-fun |id::iVar1@40| () (_ BitVec 32))
(declare-fun |id::iVar1@41| () (_ BitVec 32))
(declare-fun |id::iVar1@43| () (_ BitVec 32))
(declare-fun |id::iVar1@44| () (_ BitVec 32))
(declare-fun |id::iVar1@46| () (_ BitVec 32))
(declare-fun |id::iVar1@47| () (_ BitVec 32))
(declare-fun |id::iVar1@49| () (_ BitVec 32))
(declare-fun |id::iVar1@50| () (_ BitVec 32))
(declare-fun |id::iVar1@52| () (_ BitVec 32))
(declare-fun |id::iVar1@53| () (_ BitVec 32))
(declare-fun |id::iVar1@55| () (_ BitVec 32))
(declare-fun |id::iVar1@56| () (_ BitVec 32))
(declare-fun |id::iVar1@58| () (_ BitVec 32))
(declare-fun |id::iVar1@59| () (_ BitVec 32))
(declare-fun |id::iVar1@61| () (_ BitVec 32))
(declare-fun |id::iVar1@62| () (_ BitVec 32))
(declare-fun |id::iVar1@64| () (_ BitVec 32))
(declare-fun |id::iVar1@65| () (_ BitVec 32))
(declare-fun |id::iVar1@67| () (_ BitVec 32))
(declare-fun |id::iVar1@68| () (_ BitVec 32))
(declare-fun |id::iVar1@70| () (_ BitVec 32))
(declare-fun |id::iVar1@71| () (_ BitVec 32))
(declare-fun |id::iVar1@73| () (_ BitVec 32))
(declare-fun |id::iVar1@74| () (_ BitVec 32))
(declare-fun |id::iVar1@76| () (_ BitVec 32))
(declare-fun |id::iVar1@77| () (_ BitVec 32))
(declare-fun |id::iVar1@79| () (_ BitVec 32))
(declare-fun |id::iVar1@80| () (_ BitVec 32))
(declare-fun |id::iVar1@82| () (_ BitVec 32))
(declare-fun |id::iVar1@83| () (_ BitVec 32))
(declare-fun |main::iVar1@24| () (_ BitVec 32))
(assert (let ((.def_14 (= |id::x__param__@2| |id::x@2|)))(let ((.def_12 (= |id::x__param__@2| (_ bv20 32))))(let ((.def_621 (and .def_12 .def_14)))(let ((.def_15 (= |id::x@2| (_ bv0 32))))(let ((.def_19 (not .def_15)))(let ((.def_622 (and .def_19 .def_621)))(let ((.def_24 (bvadd (_ bv4294967295 32) |id::x@2|)))(let ((.def_26 (= .def_24 |id::x__param__@3|)))(let ((.def_623 (and .def_26 .def_622)))(let ((.def_62 (= |id::x__param__@3| |id::x@3|)))(let ((.def_624 (and .def_62 .def_623)))(let ((.def_63 (= |id::x@3| (_ bv0 32))))(let ((.def_65 (not .def_63)))(let ((.def_625 (and .def_65 .def_624)))(let ((.def_69 (bvadd (_ bv4294967295 32) |id::x@3|)))(let ((.def_71 (= .def_69 |id::x__param__@4|)))(let ((.def_626 (and .def_71 .def_625)))(let ((.def_73 (= |id::x__param__@4| |id::x@4|)))(let ((.def_627 (and .def_73 .def_626)))(let ((.def_74 (= |id::x@4| (_ bv0 32))))(let ((.def_76 (not .def_74)))(let ((.def_628 (and .def_76 .def_627)))(let ((.def_80 (bvadd (_ bv4294967295 32) |id::x@4|)))(let ((.def_82 (= .def_80 |id::x__param__@5|)))(let ((.def_629 (and .def_82 .def_628)))(let ((.def_84 (= |id::x__param__@5| |id::x@5|)))(let ((.def_630 (and .def_84 .def_629)))(let ((.def_85 (= |id::x@5| (_ bv0 32))))(let ((.def_87 (not .def_85)))(let ((.def_631 (and .def_87 .def_630)))(let ((.def_91 (bvadd (_ bv4294967295 32) |id::x@5|)))(let ((.def_93 (= .def_91 |id::x__param__@6|)))(let ((.def_632 (and .def_93 .def_631)))(let ((.def_95 (= |id::x__param__@6| |id::x@6|)))(let ((.def_633 (and .def_95 .def_632)))(let ((.def_96 (= |id::x@6| (_ bv0 32))))(let ((.def_98 (not .def_96)))(let ((.def_634 (and .def_98 .def_633)))(let ((.def_102 (bvadd (_ bv4294967295 32) |id::x@6|)))(let ((.def_104 (= .def_102 |id::x__param__@7|)))(let ((.def_635 (and .def_104 .def_634)))(let ((.def_106 (= |id::x__param__@7| |id::x@7|)))(let ((.def_636 (and .def_106 .def_635)))(let ((.def_107 (= |id::x@7| (_ bv0 32))))(let ((.def_109 (not .def_107)))(let ((.def_637 (and .def_109 .def_636)))(let ((.def_113 (bvadd (_ bv4294967295 32) |id::x@7|)))(let ((.def_115 (= .def_113 |id::x__param__@8|)))(let ((.def_638 (and .def_115 .def_637)))(let ((.def_117 (= |id::x__param__@8| |id::x@8|)))(let ((.def_639 (and .def_117 .def_638)))(let ((.def_118 (= |id::x@8| (_ bv0 32))))(let ((.def_120 (not .def_118)))(let ((.def_640 (and .def_120 .def_639)))(let ((.def_124 (bvadd (_ bv4294967295 32) |id::x@8|)))(let ((.def_126 (= .def_124 |id::x__param__@9|)))(let ((.def_641 (and .def_126 .def_640)))(let ((.def_128 (= |id::x__param__@9| |id::x@9|)))(let ((.def_642 (and .def_128 .def_641)))(let ((.def_129 (= |id::x@9| (_ bv0 32))))(let ((.def_131 (not .def_129)))(let ((.def_643 (and .def_131 .def_642)))(let ((.def_135 (bvadd (_ bv4294967295 32) |id::x@9|)))(let ((.def_137 (= .def_135 |id::x__param__@10|)))(let ((.def_644 (and .def_137 .def_643)))(let ((.def_139 (= |id::x__param__@10| |id::x@10|)))(let ((.def_645 (and .def_139 .def_644)))(let ((.def_140 (= |id::x@10| (_ bv0 32))))(let ((.def_142 (not .def_140)))(let ((.def_646 (and .def_142 .def_645)))(let ((.def_146 (bvadd (_ bv4294967295 32) |id::x@10|)))(let ((.def_148 (= .def_146 |id::x__param__@11|)))(let ((.def_647 (and .def_148 .def_646)))(let ((.def_150 (= |id::x__param__@11| |id::x@11|)))(let ((.def_648 (and .def_150 .def_647)))(let ((.def_151 (= |id::x@11| (_ bv0 32))))(let ((.def_153 (not .def_151)))(let ((.def_649 (and .def_153 .def_648)))(let ((.def_157 (bvadd (_ bv4294967295 32) |id::x@11|)))(let ((.def_159 (= .def_157 |id::x__param__@12|)))(let ((.def_650 (and .def_159 .def_649)))(let ((.def_161 (= |id::x__param__@12| |id::x@12|)))(let ((.def_651 (and .def_161 .def_650)))(let ((.def_162 (= |id::x@12| (_ bv0 32))))(let ((.def_164 (not .def_162)))(let ((.def_652 (and .def_164 .def_651)))(let ((.def_168 (bvadd (_ bv4294967295 32) |id::x@12|)))(let ((.def_170 (= .def_168 |id::x__param__@13|)))(let ((.def_653 (and .def_170 .def_652)))(let ((.def_172 (= |id::x__param__@13| |id::x@13|)))(let ((.def_654 (and .def_172 .def_653)))(let ((.def_173 (= |id::x@13| (_ bv0 32))))(let ((.def_175 (not .def_173)))(let ((.def_655 (and .def_175 .def_654)))(let ((.def_179 (bvadd (_ bv4294967295 32) |id::x@13|)))(let ((.def_181 (= .def_179 |id::x__param__@14|)))(let ((.def_656 (and .def_181 .def_655)))(let ((.def_183 (= |id::x__param__@14| |id::x@14|)))(let ((.def_657 (and .def_183 .def_656)))(let ((.def_184 (= |id::x@14| (_ bv0 32))))(let ((.def_186 (not .def_184)))(let ((.def_658 (and .def_186 .def_657)))(let ((.def_190 (bvadd (_ bv4294967295 32) |id::x@14|)))(let ((.def_192 (= .def_190 |id::x__param__@15|)))(let ((.def_659 (and .def_192 .def_658)))(let ((.def_194 (= |id::x__param__@15| |id::x@15|)))(let ((.def_660 (and .def_194 .def_659)))(let ((.def_195 (= |id::x@15| (_ bv0 32))))(let ((.def_197 (not .def_195)))(let ((.def_661 (and .def_197 .def_660)))(let ((.def_201 (bvadd (_ bv4294967295 32) |id::x@15|)))(let ((.def_203 (= .def_201 |id::x__param__@16|)))(let ((.def_662 (and .def_203 .def_661)))(let ((.def_205 (= |id::x__param__@16| |id::x@16|)))(let ((.def_663 (and .def_205 .def_662)))(let ((.def_206 (= |id::x@16| (_ bv0 32))))(let ((.def_208 (not .def_206)))(let ((.def_664 (and .def_208 .def_663)))(let ((.def_212 (bvadd (_ bv4294967295 32) |id::x@16|)))(let ((.def_214 (= .def_212 |id::x__param__@17|)))(let ((.def_665 (and .def_214 .def_664)))(let ((.def_216 (= |id::x__param__@17| |id::x@17|)))(let ((.def_666 (and .def_216 .def_665)))(let ((.def_217 (= |id::x@17| (_ bv0 32))))(let ((.def_219 (not .def_217)))(let ((.def_667 (and .def_219 .def_666)))(let ((.def_223 (bvadd (_ bv4294967295 32) |id::x@17|)))(let ((.def_225 (= .def_223 |id::x__param__@18|)))(let ((.def_668 (and .def_225 .def_667)))(let ((.def_227 (= |id::x__param__@18| |id::x@18|)))(let ((.def_669 (and .def_227 .def_668)))(let ((.def_228 (= |id::x@18| (_ bv0 32))))(let ((.def_230 (not .def_228)))(let ((.def_670 (and .def_230 .def_669)))(let ((.def_234 (bvadd (_ bv4294967295 32) |id::x@18|)))(let ((.def_236 (= .def_234 |id::x__param__@19|)))(let ((.def_671 (and .def_236 .def_670)))(let ((.def_238 (= |id::x__param__@19| |id::x@19|)))(let ((.def_672 (and .def_238 .def_671)))(let ((.def_239 (= |id::x@19| (_ bv0 32))))(let ((.def_241 (not .def_239)))(let ((.def_673 (and .def_241 .def_672)))(let ((.def_245 (bvadd (_ bv4294967295 32) |id::x@19|)))(let ((.def_247 (= .def_245 |id::x__param__@20|)))(let ((.def_674 (and .def_247 .def_673)))(let ((.def_249 (= |id::x__param__@20| |id::x@20|)))(let ((.def_675 (and .def_249 .def_674)))(let ((.def_250 (= |id::x@20| (_ bv0 32))))(let ((.def_252 (not .def_250)))(let ((.def_676 (and .def_252 .def_675)))(let ((.def_256 (bvadd (_ bv4294967295 32) |id::x@20|)))(let ((.def_258 (= .def_256 |id::x__param__@21|)))(let ((.def_677 (and .def_258 .def_676)))(let ((.def_260 (= |id::x__param__@21| |id::x@21|)))(let ((.def_678 (and .def_260 .def_677)))(let ((.def_261 (= |id::x@21| (_ bv0 32))))(let ((.def_263 (not .def_261)))(let ((.def_679 (and .def_263 .def_678)))(let ((.def_267 (bvadd (_ bv4294967295 32) |id::x@21|)))(let ((.def_269 (= .def_267 |id::x__param__@22|)))(let ((.def_680 (and .def_269 .def_679)))(let ((.def_271 (= |id::x__param__@22| |id::x@22|)))(let ((.def_681 (and .def_271 .def_680)))(let ((.def_272 (= |id::x@22| (_ bv0 32))))(let ((.def_682 (and .def_272 .def_681)))(let ((.def_276 (= |id::iVar1@23| (_ bv0 32))))(let ((.def_683 (and .def_276 .def_682)))(let ((.def_278 (= |id::__retval__@2| |id::iVar1@23|)))(let ((.def_684 (and .def_278 .def_683)))(let ((.def_441 (= |id::__retval__@2| |id::iVar1@25|)))(let ((.def_685 (and .def_441 .def_684)))(let ((.def_443 (bvadd (_ bv1 32) |id::iVar1@25|)))(let ((.def_445 (= .def_443 |id::iVar1@26|)))(let ((.def_686 (and .def_445 .def_685)))(let ((.def_446 (= |id::__retval__@3| |id::iVar1@26|)))(let ((.def_687 (and .def_446 .def_686)))(let ((.def_449 (= |id::__retval__@3| |id::iVar1@28|)))(let ((.def_688 (and .def_449 .def_687)))(let ((.def_451 (bvadd (_ bv1 32) |id::iVar1@28|)))(let ((.def_453 (= .def_451 |id::iVar1@29|)))(let ((.def_689 (and .def_453 .def_688)))(let ((.def_454 (= |id::__retval__@4| |id::iVar1@29|)))(let ((.def_690 (and .def_454 .def_689)))(let ((.def_457 (= |id::__retval__@4| |id::iVar1@31|)))(let ((.def_691 (and .def_457 .def_690)))(let ((.def_459 (bvadd (_ bv1 32) |id::iVar1@31|)))(let ((.def_461 (= .def_459 |id::iVar1@32|)))(let ((.def_692 (and .def_461 .def_691)))(let ((.def_462 (= |id::__retval__@5| |id::iVar1@32|)))(let ((.def_693 (and .def_462 .def_692)))(let ((.def_465 (= |id::__retval__@5| |id::iVar1@34|)))(let ((.def_694 (and .def_465 .def_693)))(let ((.def_467 (bvadd (_ bv1 32) |id::iVar1@34|)))(let ((.def_469 (= .def_467 |id::iVar1@35|)))(let ((.def_695 (and .def_469 .def_694)))(let ((.def_470 (= |id::__retval__@6| |id::iVar1@35|)))(let ((.def_696 (and .def_470 .def_695)))(let ((.def_473 (= |id::__retval__@6| |id::iVar1@37|)))(let ((.def_697 (and .def_473 .def_696)))(let ((.def_475 (bvadd (_ bv1 32) |id::iVar1@37|)))(let ((.def_477 (= .def_475 |id::iVar1@38|)))(let ((.def_698 (and .def_477 .def_697)))(let ((.def_478 (= |id::__retval__@7| |id::iVar1@38|)))(let ((.def_699 (and .def_478 .def_698)))(let ((.def_481 (= |id::__retval__@7| |id::iVar1@40|)))(let ((.def_700 (and .def_481 .def_699)))(let ((.def_483 (bvadd (_ bv1 32) |id::iVar1@40|)))(let ((.def_485 (= .def_483 |id::iVar1@41|)))(let ((.def_701 (and .def_485 .def_700)))(let ((.def_486 (= |id::__retval__@8| |id::iVar1@41|)))(let ((.def_702 (and .def_486 .def_701)))(let ((.def_489 (= |id::__retval__@8| |id::iVar1@43|)))(let ((.def_703 (and .def_489 .def_702)))(let ((.def_491 (bvadd (_ bv1 32) |id::iVar1@43|)))(let ((.def_493 (= .def_491 |id::iVar1@44|)))(let ((.def_704 (and .def_493 .def_703)))(let ((.def_494 (= |id::__retval__@9| |id::iVar1@44|)))(let ((.def_705 (and .def_494 .def_704)))(let ((.def_497 (= |id::__retval__@9| |id::iVar1@46|)))(let ((.def_706 (and .def_497 .def_705)))(let ((.def_499 (bvadd (_ bv1 32) |id::iVar1@46|)))(let ((.def_501 (= .def_499 |id::iVar1@47|)))(let ((.def_707 (and .def_501 .def_706)))(let ((.def_502 (= |id::__retval__@10| |id::iVar1@47|)))(let ((.def_708 (and .def_502 .def_707)))(let ((.def_505 (= |id::__retval__@10| |id::iVar1@49|)))(let ((.def_709 (and .def_505 .def_708)))(let ((.def_507 (bvadd (_ bv1 32) |id::iVar1@49|)))(let ((.def_509 (= .def_507 |id::iVar1@50|)))(let ((.def_710 (and .def_509 .def_709)))(let ((.def_510 (= |id::__retval__@11| |id::iVar1@50|)))(let ((.def_711 (and .def_510 .def_710)))(let ((.def_513 (= |id::__retval__@11| |id::iVar1@52|)))(let ((.def_712 (and .def_513 .def_711)))(let ((.def_515 (bvadd (_ bv1 32) |id::iVar1@52|)))(let ((.def_517 (= .def_515 |id::iVar1@53|)))(let ((.def_713 (and .def_517 .def_712)))(let ((.def_518 (= |id::__retval__@12| |id::iVar1@53|)))(let ((.def_714 (and .def_518 .def_713)))(let ((.def_521 (= |id::__retval__@12| |id::iVar1@55|)))(let ((.def_715 (and .def_521 .def_714)))(let ((.def_523 (bvadd (_ bv1 32) |id::iVar1@55|)))(let ((.def_525 (= .def_523 |id::iVar1@56|)))(let ((.def_716 (and .def_525 .def_715)))(let ((.def_526 (= |id::__retval__@13| |id::iVar1@56|)))(let ((.def_717 (and .def_526 .def_716)))(let ((.def_529 (= |id::__retval__@13| |id::iVar1@58|)))(let ((.def_718 (and .def_529 .def_717)))(let ((.def_531 (bvadd (_ bv1 32) |id::iVar1@58|)))(let ((.def_533 (= .def_531 |id::iVar1@59|)))(let ((.def_719 (and .def_533 .def_718)))(let ((.def_534 (= |id::__retval__@14| |id::iVar1@59|)))(let ((.def_720 (and .def_534 .def_719)))(let ((.def_537 (= |id::__retval__@14| |id::iVar1@61|)))(let ((.def_721 (and .def_537 .def_720)))(let ((.def_539 (bvadd (_ bv1 32) |id::iVar1@61|)))(let ((.def_541 (= .def_539 |id::iVar1@62|)))(let ((.def_722 (and .def_541 .def_721)))(let ((.def_542 (= |id::__retval__@15| |id::iVar1@62|)))(let ((.def_723 (and .def_542 .def_722)))(let ((.def_545 (= |id::__retval__@15| |id::iVar1@64|)))(let ((.def_724 (and .def_545 .def_723)))(let ((.def_547 (bvadd (_ bv1 32) |id::iVar1@64|)))(let ((.def_549 (= .def_547 |id::iVar1@65|)))(let ((.def_725 (and .def_549 .def_724)))(let ((.def_550 (= |id::__retval__@16| |id::iVar1@65|)))(let ((.def_726 (and .def_550 .def_725)))(let ((.def_553 (= |id::__retval__@16| |id::iVar1@67|)))(let ((.def_727 (and .def_553 .def_726)))(let ((.def_555 (bvadd (_ bv1 32) |id::iVar1@67|)))(let ((.def_557 (= .def_555 |id::iVar1@68|)))(let ((.def_728 (and .def_557 .def_727)))(let ((.def_558 (= |id::__retval__@17| |id::iVar1@68|)))(let ((.def_729 (and .def_558 .def_728)))(let ((.def_561 (= |id::__retval__@17| |id::iVar1@70|)))(let ((.def_730 (and .def_561 .def_729)))(let ((.def_563 (bvadd (_ bv1 32) |id::iVar1@70|)))(let ((.def_565 (= .def_563 |id::iVar1@71|)))(let ((.def_731 (and .def_565 .def_730)))(let ((.def_566 (= |id::__retval__@18| |id::iVar1@71|)))(let ((.def_732 (and .def_566 .def_731)))(let ((.def_569 (= |id::__retval__@18| |id::iVar1@73|)))(let ((.def_733 (and .def_569 .def_732)))(let ((.def_571 (bvadd (_ bv1 32) |id::iVar1@73|)))(let ((.def_573 (= .def_571 |id::iVar1@74|)))(let ((.def_734 (and .def_573 .def_733)))(let ((.def_574 (= |id::__retval__@19| |id::iVar1@74|)))(let ((.def_735 (and .def_574 .def_734)))(let ((.def_577 (= |id::__retval__@19| |id::iVar1@76|)))(let ((.def_736 (and .def_577 .def_735)))(let ((.def_579 (bvadd (_ bv1 32) |id::iVar1@76|)))(let ((.def_581 (= .def_579 |id::iVar1@77|)))(let ((.def_737 (and .def_581 .def_736)))(let ((.def_582 (= |id::__retval__@20| |id::iVar1@77|)))(let ((.def_738 (and .def_582 .def_737)))(let ((.def_585 (= |id::__retval__@20| |id::iVar1@79|)))(let ((.def_739 (and .def_585 .def_738)))(let ((.def_587 (bvadd (_ bv1 32) |id::iVar1@79|)))(let ((.def_589 (= .def_587 |id::iVar1@80|)))(let ((.def_740 (and .def_589 .def_739)))(let ((.def_590 (= |id::__retval__@21| |id::iVar1@80|)))(let ((.def_741 (and .def_590 .def_740)))(let ((.def_593 (= |id::__retval__@21| |id::iVar1@82|)))(let ((.def_742 (and .def_593 .def_741)))(let ((.def_595 (bvadd (_ bv1 32) |id::iVar1@82|)))(let ((.def_597 (= .def_595 |id::iVar1@83|)))(let ((.def_743 (and .def_597 .def_742)))(let ((.def_598 (= |id::__retval__@22| |id::iVar1@83|)))(let ((.def_744 (and .def_598 .def_743)))(let ((.def_601 (= |id::__retval__@22| |main::iVar1@24|)))(let ((.def_745 (and .def_601 .def_744)))(let ((.def_602 (= |main::iVar1@24| (_ bv20 32))))(let ((.def_746 (and .def_602 .def_745))).def_746))))))))))))))))))))))))))))))))))))))))))))))))))))))))))))))))))))))))))))))))))))))))))))))))))))))))))))))))))))))))))))))))))))))))))))))))))))))))))))))))))))))))))))))))))))))))))))))))))))))))))))))))))))))))))))))))))))))))))))))))))))))))))))))))))))))))))))))))))))))))))))))))))))))))))))))))))))))))))